 vasp.5.4.3 09Sep16 (build Mar 08 2017 15:13:11) gamma-only

 executed on             LinuxIFC date 2019.11.19  12:07:05

 INCAR:
 POTCAR:    PAW_PBE Ti 08Apr2002
 POTCAR:    PAW_PBE O_s 07Sep2000
 POTCAR:    PAW_PBE Ti 08Apr2002
   VRHFIN =Ti: d3 s1

   TITEL  = PAW_PBE Ti 08Apr2002
   POMASS =   47.880; ZVAL   =    4.000    mass and valenz
   ENMAX  =  178.330; ENMIN  =  133.747 eV

 POTCAR:    PAW_PBE O_s 07Sep2000
   VRHFIN =O: s2p4

   TITEL  = PAW_PBE O_s 07Sep2000
   POMASS =   16.000; ZVAL   =    6.000    mass and valenz
   ENMAX  =  282.853; ENMIN  =  212.140 eV

 Optimization of the real space projectors (new method)

 maximal supplied QI-value         = 13.42
 optimisation between [QCUT,QGAM] = [  8.05, 16.10] = [ 18.15, 72.59] Ry
 Optimized for a Real-space Cutoff    1.75 Angstroem

   l    n(q)    QCUT    max X(q) W(low)/X(q) W(high)/X(q)  e(spline)
   2      7     8.050    49.363    0.46E-03    0.48E-03    0.20E-06
   2      7     8.050    47.669    0.45E-03    0.46E-03    0.20E-06
   0      8     8.050    26.374    0.11E-03    0.27E-03    0.77E-07
   0      8     8.050    11.549    0.89E-04    0.21E-03    0.61E-07
   1      8     8.050     9.492    0.13E-03    0.67E-04    0.21E-07
 Optimization of the real space projectors (new method)

 maximal supplied QI-value         = 20.41
 optimisation between [QCUT,QGAM] = [  7.96, 16.12] = [ 17.74, 72.80] Ry
 Optimized for a Real-space Cutoff    1.42 Angstroem

   l    n(q)    QCUT    max X(q) W(low)/X(q) W(high)/X(q)  e(spline)
   0      7     7.960   131.351    0.48E-03    0.11E-02    0.64E-07
   0      7     7.960   135.858    0.47E-03    0.10E-02    0.63E-07
   1      6     7.960    81.045    0.45E-03    0.55E-03    0.21E-06
   1      6     7.960    75.856    0.46E-03    0.54E-03    0.20E-06
  PAW_PBE Ti 08Apr2002                  :
  PAW_PBE O_s 07Sep2000                 :

 POSCAR: TiO2_rutile_15K (JACS 109 3639-3646 1087
  positions in direct lattice
 exchange correlation table for  LEXCH =        8
   RHO(1)=    0.500       N(1)  =     2000
   RHO(2)=  100.500       N(2)  =     4000

 ion  position               nearest neighbor table
   1  0.000  0.000  0.000- 204 1.95 246 1.95 241 1.95 199 1.95 121 1.98 181 1.98   2 2.95   6 2.95

   2  0.000  0.000  0.167- 200 1.95 242 1.95 241 1.95 199 1.95 122 1.98 182 1.98   3 2.95   1 2.95

[...]

  97  0.402  0.250  0.000-  66 1.95  61 1.95  25 1.98
  98  0.402  0.250  0.167-  62 1.95  61 1.95  26 1.98
  99  0.402  0.250  0.333-  63 1.95  62 1.95  27 1.98
 100  0.402  0.250  0.500-  64 1.95  63 1.95  28 1.98
 101  0.402  0.250  0.667-  65 1.95  64 1.95  29 1.98
 102  0.402  0.250  0.833-  65 1.95  66 1.95  30 1.98
 103  0.402  0.750  0.000-  72 1.95  67 1.95  31 1.98
 104  0.402  0.750  0.167-  68 1.95  67 1.95  32 1.98
 105  0.402  0.750  0.333-  69 1.95  68 1.95  33 1.98
 106  0.402  0.750  0.500-  70 1.95  69 1.95  34 1.98
 107  0.402  0.750  0.667-  71 1.95  70 1.95  35 1.98
 108  0.402  0.750  0.833-  71 1.95  72 1.95  36 1.98
 109  0.902  0.250  0.000-  54 1.95  49 1.95  37 1.98
 110  0.902  0.250  0.167-  50 1.95  49 1.95  38 1.98
 111  0.902  0.250  0.333-  51 1.95  50 1.95  39 1.98
 112  0.902  0.250  0.500-  52 1.95  51 1.95  40 1.98
 113  0.902  0.250  0.667-  53 1.95  52 1.95  41 1.98
 114  0.902  0.250  0.833-  53 1.95  54 1.95  42 1.98
 115  0.902  0.750  0.000-  60 1.95  55 1.95  43 1.98
 116  0.902  0.750  0.167-  56 1.95  55 1.95  44 1.98
 117  0.902  0.750  0.333-  57 1.95  56 1.95  45 1.98
 118  0.902  0.750  0.500-  58 1.95  57 1.95  46 1.98
 119  0.902  0.750  0.667-  59 1.95  58 1.95  47 1.98
 120  0.902  0.750  0.833-  59 1.95  60 1.95  48 1.98
 121  0.152  0.000  0.000-  78 1.95  73 1.95   1 1.98
 122  0.152  0.000  0.167-  74 1.95  73 1.95   2 1.98
 123  0.152  0.000  0.333-  75 1.95  74 1.95   3 1.98
 124  0.152  0.000  0.500-  76 1.95  75 1.95   4 1.98
 125  0.152  0.000  0.667-  77 1.95  76 1.95   5 1.98
 126  0.152  0.000  0.833-  77 1.95  78 1.95   6 1.98
 127  0.152  0.500  0.000-  84 1.95  79 1.95   7 1.98
 128  0.152  0.500  0.167-  80 1.95  79 1.95   8 1.98
 129  0.152  0.500  0.333-  81 1.95  80 1.95   9 1.98
 130  0.152  0.500  0.500-  82 1.95  81 1.95  10 1.98
 131  0.152  0.500  0.667-  83 1.95  82 1.95  11 1.98
 132  0.152  0.500  0.833-  83 1.95  84 1.95  12 1.98
 133  0.652  0.000  0.000-  90 1.95  85 1.95  13 1.98
 134  0.652  0.000  0.167-  86 1.95  85 1.95  14 1.98
 135  0.652  0.000  0.333-  87 1.95  86 1.95  15 1.98
 136  0.652  0.000  0.500-  88 1.95  87 1.95  16 1.98
 137  0.652  0.000  0.667-  89 1.95  88 1.95  17 1.98
 138  0.652  0.000  0.833-  89 1.95  90 1.95  18 1.98
 139  0.652  0.500  0.000-  96 1.95  91 1.95  19 1.98
 140  0.652  0.500  0.167-  92 1.95  91 1.95  20 1.98
 141  0.652  0.500  0.333-  93 1.95  92 1.95  21 1.98
 142  0.652  0.500  0.500-  94 1.95  93 1.95  22 1.98
 143  0.652  0.500  0.667-  95 1.95  94 1.95  23 1.98
 144  0.652  0.500  0.833-  95 1.95  96 1.95  24 1.98
 145  0.098  0.250  0.000-  54 1.95  49 1.95  25 1.98
 146  0.098  0.250  0.167-  50 1.95  49 1.95  26 1.98
 147  0.098  0.250  0.333-  51 1.95  50 1.95  27 1.98
 148  0.098  0.250  0.500-  52 1.95  51 1.95  28 1.98
 149  0.098  0.250  0.667-  53 1.95  52 1.95  29 1.98
 150  0.098  0.250  0.833-  53 1.95  54 1.95  30 1.98
 151  0.098  0.750  0.000-  60 1.95  55 1.95  31 1.98
 152  0.098  0.750  0.167-  56 1.95  55 1.95  32 1.98
 153  0.098  0.750  0.333-  57 1.95  56 1.95  33 1.98
 154  0.098  0.750  0.500-  58 1.95  57 1.95  34 1.98
 155  0.098  0.750  0.667-  59 1.95  58 1.95  35 1.98
 156  0.098  0.750  0.833-  59 1.95  60 1.95  36 1.98
[...]
 274  0.250  0.848  0.583-  34 1.95  35 1.95  76 1.98
 275  0.250  0.848  0.750-  35 1.95  36 1.95  77 1.98
 276  0.250  0.848  0.917-  31 1.95  36 1.95  78 1.98
 277  0.750  0.348  0.083-  38 1.95  37 1.95  91 1.98
 278  0.750  0.348  0.250-  38 1.95  39 1.95  92 1.98
 279  0.750  0.348  0.417-  39 1.95  40 1.95  93 1.98
 280  0.750  0.348  0.583-  40 1.95  41 1.95  94 1.98
 281  0.750  0.348  0.750-  41 1.95  42 1.95  95 1.98
 282  0.750  0.348  0.917-  37 1.95  42 1.95  96 1.98
 283  0.750  0.848  0.083-  44 1.95  43 1.95  85 1.98
 284  0.750  0.848  0.250-  44 1.95  45 1.95  86 1.98
 285  0.750  0.848  0.417-  45 1.95  46 1.95  87 1.98
 286  0.750  0.848  0.583-  46 1.95  47 1.95  88 1.98
 287  0.750  0.848  0.750-  47 1.95  48 1.95  89 1.98
 288  0.750  0.848  0.917-  43 1.95  48 1.95  90 1.98

IMPORTANT INFORMATION: All symmetrisations will be switched off!
NOSYMM: (Re-)initialisation of all symmetry stuff for point group C_1.

 KPOINTS: k-points

Automatic generation of k-mesh.
Space group operators:
 irot       det(A)        alpha          n_x          n_y          n_z        tau_x        tau_y        tau_z
    1     1.000000     0.000000     1.000000     0.000000     0.000000     0.000000     0.000000     0.000000

 Subroutine IBZKPT returns following result:

 Found      1 irreducible k-points:

 Following reciprocal coordinates:
            Coordinates               Weight
  0.000000  0.000000  0.000000      1.000000

 Following cartesian coordinates:
            Coordinates               Weight
  0.000000  0.000000  0.000000      1.000000

 I would recommend the setting:
   dimension x,y,z NGX =    50 NGY =   50 NGZ =   69
 SYSTEM =  unknown system
 POSCAR =  TiO2_rutile_15K (JACS 109 3639-3646 1087

 Startparameter for this run:
   NWRITE =      2    write-flag & timer
   PREC   = n         normal or accurate (medium, high low for compatibility)
   ISTART =      0    job   : 0-new  1-cont  2-samecut
   ICHARG =      2    charge: 1-file 2-atom 10-const
   ISPIN  =      1    spin polarized calculation?
   LNONCOLLINEAR =      F non collinear calculations
   LSORBIT =      F    spin-orbit coupling
   INIWAV =      1    electr: 0-lowe 1-rand  2-diag
   LASPH  =      F    aspherical Exc in radial PAW
   METAGGA=      F    non-selfconsistent MetaGGA calc.

 Electronic Relaxation 1
   ENCUT  =  250.0 eV  18.37 Ry    4.29 a.u.  16.73 16.73 22.85*2*pi/ulx,y,z
   ENINI  =  250.0     initial cutoff
   ENAUG  =  412.4 eV  augmentation charge cutoff
   NELM   =     60;   NELMIN=  2; NELMDL= -5     # of ELM steps
   EDIFF  = 0.1E-03   stopping-criterion for ELM
   LREAL  =      T    real-space projection
   NLSPLINE    = F    spline interpolate recip. space projectors
   LCOMPAT=      F    compatible to vasp.4.4
   GGA_COMPAT  = T    GGA compatible to vasp.4.4-vasp.4.6
   LMAXPAW     = -100 max onsite density
   LMAXMIX     =    4 max onsite mixed and CHGCAR
   VOSKOWN=      0    Vosko Wilk Nusair interpolation
   ROPT   =   -0.00050  -0.00050
 Ionic relaxation
   EDIFFG = 0.1E-02   stopping-criterion for IOM
   NSW    =    200    number of steps for IOM
   NBLOCK =      1;   KBLOCK =    200    inner block; outer block
   IBRION =      1    ionic relax: 0-MD 1-quasi-New 2-CG
   NFREE  =      0    steps in history (QN), initial steepest desc. (CG)
   ISIF   =      2    stress and relaxation
   IWAVPR =     11    prediction:  0-non 1-charg 2-wave 3-comb
   ISYM   =      0    0-nonsym 1-usesym 2-fastsym
   LCORR  =      T    Harris-Foulkes like correction to forces

   POTIM  = 0.5000    time-step for ionic-motion
   TEIN   =    0.0    initial temperature
   TEBEG  =    0.0;   TEEND  =   0.0 temperature during run
   SMASS  =  -3.00    Nose mass-parameter (am)
   estimated Nose-frequenzy (Omega)   =  0.10E-29 period in steps =****** mass=  -0.385E-26a.u.
   SCALEE = 1.0000    scale energy and forces
   NPACO  =    256;   APACO  = 16.0  distance and # of slots for P.C.
   PSTRESS=    0.0 pullay stress

  Mass of Ions in am
   POMASS =  47.88 16.00
  Ionic Valenz
   ZVAL   =   4.00  6.00
  Atomic Wigner-Seitz radii
  virtual crystal weights
   VCA    =   1.00  1.00
   NELECT =    1537.0000    total number of electrons
   NUPDOWN=      -1.0000    fix difference up-down

 DOS related values:
   EMIN   =  10.00;   EMAX   =-10.00  energy-range for DOS
   EFERMI =   0.00
   ISMEAR =     0;   SIGMA  =   0.05  broadening in eV -4-tet -1-fermi 0-gaus

 Electronic relaxation 2 (details)
   IALGO  =     68    algorithm
   LDIAG  =      T    sub-space diagonalisation (order eigenvalues)
   LSUBROT=      F    optimize rotation matrix (better conditioning)
   TURBO    =      0    0=normal 1=particle mesh
   IRESTART =      0    0=no restart 2=restart with 2 vectors
   NREBOOT  =      0    no. of reboots
   NMIN     =      0    reboot dimension
   EREF     =   0.00    reference energy to select bands
   IMIX   =      4    mixing-type and parameters
     AMIX     =   0.40;   BMIX     =  1.00
     AMIX_MAG =   0.40;   BMIX_MAG =  1.00
     AMIN     =   0.10
     WC   =   100.;   INIMIX=   1;  MIXPRE=   1;  MAXMIX=  40

 Intra band minimization:
   WEIMIN = 0.0010     energy-eigenvalue tresh-hold
   EBREAK =  0.27E-07  absolut break condition
   DEPER  =   0.30     relativ break condition

   TIME   =   0.40     timestep for ELM

  volume/ion in A,a.u.               =      10.36        69.90
  Fermi-wavevector in a.u.,A,eV,Ry     =   1.312445  2.480161 23.436197  1.722512
  Thomas-Fermi vector in A             =   2.442837

 Write flags
   LWAVE        =      T    write WAVECAR
[...]
   -.350E-03 -.754E-04 -.673E-04   -.130E-03 -.759E-04 0.897E-05   -.218E-04 -.218E-04 0.374E-04   0.476E-03 0.101E-03 0.383E-04
   -.431E-03 -.122E-03 0.106E+00   -.113E-03 -.961E-04 -.105E+00   -.447E-04 -.253E-04 -.136E-02   0.546E-03 0.187E-03 -.110E-02
   0.239E-03 -.199E-03 -.106E+00   -.856E-03 0.392E-03 0.105E+00   -.190E-03 0.300E-04 0.127E-02   0.403E-03 -.992E-04 0.132E-02
   -.107E-02 0.341E-04 0.262E-02   0.762E-03 0.689E-04 -.327E-02   0.384E-04 0.227E-05 -.297E-03   0.400E-03 -.116E-03 0.223E-03
   -.435E-03 0.144E-03 0.104E+00   0.122E-03 -.214E-03 -.103E+00   -.956E-05 0.495E-06 -.117E-02   0.335E-03 0.443E-04 -.124E-02
   -.641E-03 -.362E-04 -.106E+00   0.394E-03 -.150E-03 0.105E+00   0.431E-04 -.214E-06 0.129E-02   0.289E-03 0.141E-03 0.109E-02
   -.752E-03 -.563E-04 -.103E-02   0.227E-03 0.548E-04 0.135E-02   -.398E-04 0.249E-04 0.134E-03   0.490E-03 -.216E-05 -.120E-03
   -.853E-03 0.716E-06 0.106E+00   0.414E-03 0.195E-03 -.105E+00   0.108E-04 0.384E-04 -.124E-02   0.460E-03 -.187E-03 -.118E-02
   -.107E-02 0.964E-04 -.106E+00   0.745E-03 0.485E-04 0.105E+00   0.895E-05 0.283E-05 0.126E-02   0.359E-03 -.148E-03 0.128E-02
   -.429E-05 0.427E-03 0.350E-02   0.447E-03 -.865E-03 -.375E-02   0.784E-04 -.135E-03 -.214E-03   -.424E-03 0.194E-03 -.913E-04
   -.380E-03 0.391E-03 0.103E+00   0.130E-02 -.643E-03 -.102E+00   0.227E-03 -.690E-04 -.106E-02   -.673E-03 0.134E-03 -.105E-02
   -.343E-03 0.242E-03 -.104E+00   0.129E-02 -.218E-03 0.103E+00   0.231E-03 -.503E-04 0.101E-02   -.669E-03 -.502E-04 0.133E-02
   0.479E-03 0.160E-03 -.119E-02   0.184E-03 -.253E-03 0.110E-02   0.300E-04 -.783E-04 0.782E-04   -.628E-03 -.130E-04 0.193E-03
   0.237E-03 0.252E-03 0.107E+00   0.441E-03 -.663E-03 -.106E+00   0.700E-04 -.130E-03 -.134E-02   -.615E-03 0.206E-03 -.114E-02
   -.622E-03 0.130E-03 -.108E+00   0.142E-02 -.707E-03 0.108E+00   0.232E-03 -.163E-03 0.152E-02   -.487E-03 0.311E-03 0.745E-03
   0.120E-02 -.389E-03 0.182E-02   -.118E-02 0.900E-03 -.215E-02   -.753E-04 0.150E-03 -.250E-03   -.214E-03 -.248E-03 -.150E-04
   0.149E-02 -.672E-04 0.104E+00   -.146E-02 0.315E-03 -.104E+00   -.746E-04 0.393E-04 -.119E-02   -.200E-03 -.195E-03 -.114E-02
   0.148E-02 0.169E-03 -.105E+00   -.137E-02 -.312E-03 0.104E+00   -.103E-03 -.438E-05 0.123E-02   -.275E-03 0.747E-04 0.127E-02
   0.119E-02 -.254E-03 -.225E-03   -.681E-03 0.409E-03 0.518E-03   -.186E-05 0.799E-04 0.145E-03   -.512E-03 -.612E-04 -.371E-04
   0.112E-02 -.376E-03 0.105E+00   -.770E-03 0.993E-03 -.104E+00   -.274E-04 0.169E-03 -.113E-02   -.438E-03 -.373E-03 -.108E-02
   0.107E-02 -.474E-03 -.107E+00   -.749E-03 0.109E-02 0.106E+00   -.278E-04 0.198E-03 0.120E-02   -.379E-03 -.310E-03 0.102E-02
   0.248E-03 -.304E-03 0.110E+00   -.342E-03 0.365E-03 -.117E+00   -.750E-04 0.367E-04 -.443E-03   0.650E-05 0.313E-04 0.229E-02
   -.343E-03 -.218E-04 0.290E-02   0.427E-03 -.423E-04 -.340E-02   0.569E-05 -.418E-04 -.242E-03   -.939E-04 -.107E-04 0.176E-03
   -.495E-03 -.487E-03 -.117E+00   0.745E-03 0.766E-03 0.125E+00   0.607E-04 0.930E-04 0.958E-03   -.146E-03 -.141E-03 -.241E-02
   0.415E-05 0.412E-03 0.117E+00   0.196E-03 -.532E-03 -.125E+00   0.572E-04 -.102E-03 -.103E-02   -.135E-03 0.135E-04 0.262E-02
   0.151E-03 0.814E-04 -.265E-02   -.182E-03 -.241E-03 0.312E-02   -.324E-04 -.449E-04 0.253E-03   -.157E-04 0.140E-03 -.239E-04
   0.195E-03 0.421E-03 -.110E+00   -.438E-03 -.689E-03 0.117E+00   -.900E-04 -.134E-03 0.482E-03   0.977E-04 0.127E-03 -.263E-02
   -.261E-03 0.270E-03 0.115E+00   0.532E-03 -.184E-03 -.123E+00   0.672E-04 -.144E-04 -.873E-03   -.167E-03 -.126E-03 0.261E-02
   -.701E-03 0.242E-03 0.317E-04   0.103E-02 -.193E-03 0.313E-03   0.102E-03 0.294E-04 0.154E-04   -.153E-03 0.665E-05 -.285E-03
   -.377E-03 0.491E-03 -.115E+00   0.703E-03 -.937E-03 0.123E+00   0.760E-04 -.105E-03 0.941E-03   -.191E-03 0.293E-03 -.251E-02
   -.182E-03 -.202E-03 0.113E+00   0.471E-03 0.321E-03 -.121E+00   0.181E-04 0.786E-04 -.703E-03   -.263E-03 -.233E-05 0.249E-02
   0.305E-03 -.547E-03 -.152E-03   -.551E-04 0.739E-03 0.146E-04   -.240E-04 0.917E-04 -.484E-04   -.269E-03 -.842E-04 0.797E-04
   0.384E-03 -.111E-02 -.113E+00   -.151E-03 0.150E-02 0.120E+00   0.449E-05 0.202E-03 0.671E-03   -.217E-03 -.124E-03 -.241E-02
[...]
   -.810E-03 -.194E+02 0.121E-04   0.852E-04 0.252E+02 0.247E-03   0.219E-03 -.581E+01 0.923E-04   0.532E-03 0.491E-02 -.323E-03
   -.131E-02 -.196E+02 0.677E-01   0.281E-03 0.253E+02 -.709E-01   0.123E-03 -.580E+01 0.622E-03   0.917E-03 0.394E-02 0.264E-03
   0.104E-02 -.196E+02 -.666E-01   -.109E-03 0.254E+02 0.696E-01   -.248E-03 -.580E+01 -.909E-03   -.691E-03 0.453E-02 0.173E-03
   0.186E-02 -.194E+02 -.334E-02   -.353E-03 0.252E+02 0.298E-02   -.360E-03 -.581E+01 0.184E-03   -.116E-02 0.490E-02 0.397E-03
   0.118E-02 -.196E+02 0.684E-01   -.303E-04 0.253E+02 -.715E-01   -.341E-03 -.580E+01 0.476E-03   -.820E-03 0.313E-02 0.236E-03
   0.138E-02 -.196E+02 -.698E-01   -.184E-03 0.253E+02 0.725E-01   -.334E-04 -.580E+01 -.413E-03   -.115E-02 0.337E-02 0.253E-03
   0.968E-03 -.194E+02 0.220E-02   0.232E-04 0.252E+02 -.223E-02   -.375E-03 -.581E+01 -.193E-04   -.640E-03 0.514E-02 -.120E-03
   0.104E-02 -.195E+02 0.683E-01   0.124E-03 0.253E+02 -.706E-01   -.270E-03 -.580E+01 0.682E-03   -.906E-03 0.422E-02 -.715E-03
   0.145E-02 -.195E+02 -.693E-01   -.123E-02 0.253E+02 0.716E-01   0.141E-03 -.580E+01 -.179E-03   -.372E-03 0.277E-02 0.387E-03
   0.104E-02 -.194E+02 -.287E-04   -.593E-03 0.252E+02 -.367E-04   0.934E-04 -.581E+01 0.352E-03   -.545E-03 0.411E-02 -.215E-03
   0.157E-02 -.195E+02 0.692E-01   -.735E-03 0.253E+02 -.719E-01   -.485E-04 -.580E+01 0.754E-04   -.796E-03 0.311E-02 -.194E-05
   0.120E-02 -.196E+02 -.679E-01   -.126E-03 0.253E+02 0.710E-01   -.189E-03 -.580E+01 -.106E-02   -.895E-03 0.301E-02 0.169E-03
   0.974E-03 -.194E+02 0.371E-03   -.179E-03 0.252E+02 -.553E-03   -.190E-03 -.581E+01 0.111E-03   -.623E-03 0.425E-02 0.602E-04
   0.768E-03 -.195E+02 0.666E-01   -.268E-03 0.253E+02 -.694E-01   -.972E-04 -.580E+01 0.781E-03   -.425E-03 0.242E-02 -.146E-03
   -.758E-03 -.595E-03 0.278E-04   -.573E-12 -.129E-11 -.197E-12   -.382E-03 0.256E-03 -.204E-03   0.119E-02 0.328E-03 0.262E-03

 POSITION                                       TOTAL-FORCE (eV/Angst)
      0.00001     -0.00000      0.00001        -0.000503      0.000116     -0.000453
      0.00001     -0.00001      2.95422        -0.000325      0.000323      0.010675
      0.00000     -0.00000      5.90799        -0.000100      0.000310     -0.010562
     -0.00000     -0.00000      8.86220         0.000065      0.000131      0.000362
      0.00000      0.00000     11.81643        -0.000155     -0.000034      0.010634
      0.00000      0.00000     14.77020        -0.000223      0.000050     -0.010637
      0.00000      6.48652     -0.00001        -0.000051     -0.000311      0.000565
      0.00000      6.48652      2.95423        -0.000200     -0.000361      0.009957
     -0.00000      6.48652      5.90797        -0.000013     -0.000283     -0.009672
     -0.00001      6.48652      8.86222         0.000328     -0.000109     -0.000591
     -0.00000      6.48652     11.81642         0.000197     -0.000059      0.010991
     -0.00001      6.48652     14.77021         0.000368     -0.000255     -0.011272
      6.48651      0.00000      0.00000         0.000524     -0.000204     -0.000051
      6.48651      0.00000      2.95423         0.000386     -0.000190      0.009842
      6.48652      0.00000      5.90797         0.000036     -0.000253     -0.009826
      6.48652      0.00000      8.86221        -0.000260     -0.000075     -0.000107
      6.48651      0.00000     11.81643         0.000096     -0.000220      0.010586
      6.48651      0.00001     14.77020         0.000200     -0.000312     -0.010454
      6.48651      6.48651      0.00001         0.000152      0.000291     -0.000681
      6.48651      6.48651      2.95421         0.000347      0.000392      0.010926
      6.48651      6.48651      5.90799         0.000272      0.000426     -0.010699
      6.48652      6.48652      8.86221        -0.000194      0.000075      0.000257
      6.48652      6.48651     11.81643        -0.000093      0.000157      0.010406
      6.48652      6.48651     14.77019        -0.000265      0.000288     -0.010260
      3.24326      3.24325      0.00001        -0.000117      0.000142     -0.000537
      3.24327      3.24326      2.95417        -0.000593      0.000059     -0.001162
      3.24327      3.24326      5.90803        -0.000627      0.000017      0.001904
      3.24326      3.24326      8.86221        -0.000026     -0.000072      0.000017
      3.24326      3.24326     11.81639        -0.000043     -0.000057     -0.001835
      3.24327      3.24326     14.77025        -0.000404      0.000124      0.001599
      3.24326      9.72977      0.00001         0.000134     -0.000010     -0.000717
      3.24326      9.72977      2.95417         0.000013     -0.000025     -0.001348
      3.24326      9.72977      5.90803         0.000086     -0.000045      0.001682
      3.24326      9.72977      8.86220        -0.000075      0.000021      0.000338
      3.24326      9.72977     11.81638         0.000032      0.000047     -0.001540
      3.24326      9.72977     14.77025         0.000044     -0.000000      0.001569
      9.72977      3.24327      0.00001         0.000096     -0.000378     -0.000558
      9.72976      3.24326      2.95416         0.000471     -0.000187     -0.001092
      9.72976      3.24326      5.90804         0.000511     -0.000077      0.001047
      9.72977      3.24326      8.86221         0.000064     -0.000184      0.000178
      9.72977      3.24326     11.81639         0.000133     -0.000336     -0.001856
      9.72976      3.24327     14.77023         0.000544     -0.000428      0.002279
      9.72978      9.72977      0.00001        -0.000267      0.000413     -0.000601
      9.72978      9.72977      2.95417        -0.000250      0.000092     -0.001470
      9.72978      9.72977      5.90804        -0.000267     -0.000073      0.001527
      9.72977      9.72977      8.86221        -0.000006      0.000174      0.000401
      9.72978      9.72976     11.81638        -0.000112      0.000412     -0.001294
      9.72977      9.72976     14.77025        -0.000083      0.000501      0.001432
      0.00000      3.24326      1.47738        -0.000163      0.000129     -0.005126
     -0.00000      3.24326      4.43112        -0.000004     -0.000116     -0.000567
     -0.00000      3.24325      7.38481         0.000165      0.000232      0.006401
     -0.00000      3.24326     10.33961         0.000122     -0.000209     -0.006578
      0.00000      3.24326     13.29330        -0.000079     -0.000064      0.000702
      0.00000      3.24326     16.24704        -0.000236     -0.000275      0.005144
     -0.00000      9.72977      1.47740         0.000171     -0.000054     -0.006224
     -0.00001      9.72977      4.43110         0.000282      0.000085      0.000076
     -0.00001      9.72978      7.38481         0.000212     -0.000258      0.006367
     -0.00000      9.72977     10.33960         0.000045      0.000195     -0.005770
     -0.00000      9.72977     13.29332        -0.000043      0.000199     -0.000107
     -0.00000      9.72976     16.24703         0.000021      0.000471      0.005645
[...]
      3.24326     11.00976     10.33885         0.000018      0.001715      0.002314
      3.24326     11.01003     13.29331         0.000025     -0.004753      0.000028
      3.24326     11.00975     16.24778         0.000015      0.001939     -0.002339
      9.72978      4.52323      1.47665        -0.000012      0.002125      0.002255
      9.72978      4.52352      4.43110        -0.000020     -0.004875      0.000218
      9.72978      4.52324      7.38557        -0.000014      0.001949     -0.002460
      9.72978      4.52324     10.33885         0.000016      0.001882      0.002528
      9.72977      4.52351     13.29332        -0.000024     -0.004624     -0.000163
      9.72978      4.52324     16.24778        -0.000011      0.001726     -0.002349
      9.72977     11.00976      1.47664        -0.000016      0.001547      0.002533
      9.72978     11.01005      4.43110        -0.000010     -0.005308      0.000072
      9.72978     11.00976      7.38557        -0.000007      0.001672     -0.002597
      9.72978     11.00976     10.33885        -0.000014      0.001838      0.002231
      9.72978     11.01003     13.29331        -0.000019     -0.004694     -0.000011
      9.72978     11.00977     16.24777        -0.000022      0.001386     -0.002194
    total drift:                                0.000049     -0.000010      0.000086

  FREE ENERGIE OF THE ION-ELECTRON SYSTEM (eV)
  free  energy   TOTEN  =     -2210.17648190 eV

  energy  without entropy=    -2210.12586329  energy(sigma->0) =    -2210.15117260

 d Force =-0.1030517E-04[-0.336E-03, 0.315E-03]  d Energy =-0.1335618E-05-0.897E-05
 d Force = 0.7712760E-01[ 0.741E-01, 0.801E-01]  d Ewald  = 0.7712758E-01 0.137E-07

 Quasi-Newton relaxation of ions (Broydens 2nd method)
  g(Force)  = 0.419E-03   g(Stress)= 0.000E+00

 retain information from N=  2 steps
 eigenvalues of (default step * inverse Hessian matrix)
  average eigenvalue of G=   0.6073
 eigenvalue spectrum of G is  0.7902  0.4244

 reached required accuracy - stopping structural energy minimisation
 writing wavefunctions

 total charge

# of ion       s       p       d       tot
    1        0.569   1.149   2.446   4.164
    2        0.570   1.149   2.447   4.167
    3        0.570   1.149   2.447   4.167
    4        0.569   1.149   2.446   4.164
    5        0.570   1.149   2.447   4.167
    6        0.570   1.149   2.447   4.167
    7        0.569   1.149   2.446   4.164
    8        0.570   1.149   2.447   4.167
    9        0.570   1.149   2.447   4.167
   10        0.569   1.149   2.446   4.164
   11        0.570   1.149   2.447   4.167
   12        0.570   1.149   2.447   4.166
   13        0.569   1.149   2.446   4.164
   14        0.570   1.149   2.447   4.166
   15        0.570   1.149   2.447   4.166
   16        0.569   1.149   2.446   4.164
   17        0.570   1.149   2.447   4.166
   18        0.570   1.149   2.447   4.166
   19        0.569   1.149   2.446   4.164
   20        0.570   1.149   2.447   4.166
   21        0.570   1.149   2.447   4.166
   22        0.569   1.149   2.446   4.164
   23        0.570   1.149   2.447   4.166
   24        0.570   1.149   2.447   4.166
   25        0.570   1.149   2.448   4.167
   26        0.569   1.148   2.446   4.164
   27        0.569   1.148   2.446   4.164
   28        0.570   1.149   2.448   4.167
   29        0.569   1.148   2.446   4.164
   30        0.569   1.148   2.446   4.164
   31        0.570   1.149   2.448   4.167
   32        0.569   1.148   2.446   4.164
   33        0.569   1.148   2.446   4.164
   34        0.570   1.149   2.448   4.167
   35        0.569   1.148   2.446   4.164
   36        0.569   1.148   2.446   4.164
   37        0.570   1.149   2.448   4.167
   38        0.569   1.148   2.446   4.164
   39        0.569   1.148   2.446   4.164
   40        0.570   1.149   2.448   4.167
   41        0.569   1.148   2.446   4.164
   42        0.569   1.148   2.446   4.164
   43        0.570   1.149   2.447   4.167
   44        0.569   1.148   2.446   4.164
   45        0.569   1.148   2.446   4.164
   46        0.570   1.149   2.448   4.167
   47        0.569   1.148   2.446   4.164
   48        0.569   1.148   2.446   4.164
   49        0.569   1.148   2.446   4.164
   50        0.570   1.150   2.448   4.168
   51        0.569   1.148   2.446   4.164
   52        0.569   1.148   2.446   4.164
   53        0.570   1.150   2.448   4.168
   54        0.569   1.148   2.446   4.164
   55        0.569   1.148   2.446   4.164
   56        0.570   1.150   2.448   4.168
   57        0.569   1.148   2.446   4.164
   58        0.569   1.148   2.446   4.164
   59        0.570   1.150   2.448   4.168
   60        0.569   1.148   2.446   4.164
[...]
  274        1.796   4.257   0.000   6.053
  275        1.796   4.257   0.000   6.053
  276        1.796   4.257   0.000   6.053
  277        1.796   4.257   0.000   6.053
  278        1.796   4.257   0.000   6.053
  279        1.796   4.257   0.000   6.053
  280        1.796   4.257   0.000   6.053
  281        1.796   4.257   0.000   6.053
  282        1.796   4.257   0.000   6.053
  283        1.796   4.257   0.000   6.053
  284        1.796   4.257   0.000   6.053
  285        1.796   4.257   0.000   6.053
  286        1.796   4.257   0.000   6.053
  287        1.796   4.257   0.000   6.053
  288        1.796   4.257   0.000   6.053
tot        399.543 927.650 234.8901562.083